(set-logic HORN)
(declare-fun Q_n0 (Int Int Int Int) Bool)
(declare-fun Q_n1 (Int Int Int Int) Bool)
(declare-fun Q_n0_a (Int Int Int Int) Bool)
(declare-fun Q_n0_b (Int Int Int Int) Bool)
(assert (forall ((xo Int) (xa Int) (xb Int) (xm Int)) (=> (and (= xo xa) (= xa xb) (= xb xm)) (Q_n0 xo xa xb xm))))
(assert (forall ((xo Int) (xa Int) (xb Int) (xm Int)) (=> (Q_n0 xo xa xb xm) (Q_n0_a xo xa xb xm))))
(assert (forall ((xo Int) (xa Int) (xb Int) (xm Int)) (=> (Q_n0_a xo xa xb xm) (and (and (or (= xo xa) (= xm xa)) (or (= xo xb) (= xm xb)) (or (not (= xo xa)) (not (= xo xb)) (= xm xo)))))))
(assert (forall ((xo Int) (xa Int) (xb Int) (xm Int) (xa1 Int) (xm1 Int)) (=> (and (= xm1 0) (= xa1 0) (Q_n0_a xo xa xb xm)) (Q_n0_b xo xa1 xb xm1))))
(assert (forall ((xo Int) (xa Int) (xb Int) (xm Int)) (=> (Q_n0_b xo xa xb xm) (and (and (or (= xo xa) (= xm xa)) (or (= xo xb) (= xm xb)) (or (not (= xo xa)) (not (= xo xb)) (= xm xo)))))))
(assert (forall ((xo Int) (xa Int) (xb Int) (xm Int) (xb1 Int) (xm1 Int)) (=> (and (= xm1 0) (= xb1 0) (Q_n0_b xo xa xb xm)) (Q_n1 xo xa xb1 xm1))))
(assert (forall ((xo Int) (xa Int) (xb Int) (xm Int)) (=> (Q_n1 xo xa xb xm) (and (and (or (= xo xa) (= xm xa)) (or (= xo xb) (= xm xb)) (or (not (= xo xa)) (not (= xo xb)) (= xm xo)))))))
(assert (forall ((xo Int) (xa Int) (xb Int) (xm Int)) (=> (Q_n1 xo xa xb xm) (and (and (or (= xo xa) (= xm xa)) (or (= xo xb) (= xm xb)) (or (not (= xo xa)) (not (= xo xb)) (= xm xo)))))))
(check-sat)
